3889897119120705417501,1,1,2,011,5,1,2,010,9,1,2,08,13,1,2,010,3,1,2,05,8,1,2,013,1,1,2,011,15,1,2,07,2,1,2,02,7,1,2,03,3,1,2,05,3,1,2,03,15,1,2,06,13,1,2,012,14,1,2,012,5,1,2,03,1,1,2,08,2,1,2,08,11,1,2,015,14,1,2,014,3,1,2,01,14,1,2,013,11,1,2,013,10,1,2,010,7,1,2,013,10,1,2,08,4,1,2,01,5,1,2,010,8,1,2,07,1,1,2,015,8,1,2,03,11,1,2,02,5,1,2,013,9,1,2,04,13,1,2,02,10,1,2,07,13,1,2,09,14,1,2,09,13,1,2,06,15,1,2,011,6,1,2,013,10,1,2,01,15,1,2,013,3,1,2,08,2,1,2,014,10,1,2,015,4,1,2,07,9,1,2,012,5,1,2,02,15,1,2,0